sat
(:max-memory         18.72
 :memory             18.63
 :nlsat-arith-var    3
 :nlsat-atoms        11
 :nlsat-bool-var     1
 :nlsat-clauses      8
 :nlsat-conflicts    2
 :nlsat-propagations 16
 :nlsat-stages       6
 :num-allocs         115856
 :rlimit-count       20434
 :time               0.02
 :total-time         0.03)
